# 3697
param k := 5;
param n := 60;
param s := 2;
set E :=  (0,9) (0,13) (1,10) (1,14) (1,47) (2,29) (3,8) (4,39) (4,55) (5,48) (5,52) (6,42) (7,16) (7,44) (8,50) (9,21) (9,34) (9,36) (10,23) (11,20) (11,39) (12,33) (12,54) (13,45) (13,55) (14,42) (14,57) (15,29) (17,29) (17,55) (18,47) (19,50) (20,22) (20,23) (20,28) (20,36) (20,44) (22,30) (22,43) (23,26) (23,44) (23,46) (23,49) (24,30) (25,38) (25,51) (26,37) (27,28) (27,30) (27,41) (27,48) (28,50) (28,55) (28,58) (29,53) (30,32) (30,38) (30,51) (31,37) (31,51) (33,42) (35,52) (36,45) (36,52) (37,49) (38,54) (38,56) (39,52) (40,42) (40,44) (46,58) (46,59) (47,49) (49,57) (51,54);